p edge 26 156
e 1 2
e 1 5
e 1 7
e 1 8
e 1 13
e 1 14
e 2 4
e 2 8
e 2 14
e 2 21
e 2 22
e 2 24
e 3 6
e 3 11
e 3 12
e 3 16
e 3 21
e 3 26
e 4 2
e 4 11
e 4 14
e 4 19
e 4 19
e 4 22
e 5 4
e 5 10
e 5 11
e 5 19
e 5 19
e 5 23
e 6 10
e 6 11
e 6 13
e 6 21
e 6 24
e 6 24
e 7 14
e 7 15
e 7 15
e 7 19
e 7 20
e 7 20
e 8 1
e 8 9
e 8 18
e 8 18
e 8 19
e 8 25
e 9 7
e 9 8
e 9 12
e 9 12
e 9 13
e 9 14
e 10 1
e 10 4
e 10 4
e 10 5
e 10 6
e 10 17
e 11 3
e 11 15
e 11 15
e 11 17
e 11 21
e 11 24
e 12 2
e 12 5
e 12 16
e 12 16
e 12 17
e 12 24
e 13 9
e 13 9
e 13 10
e 13 12
e 13 16
e 13 18
e 14 6
e 14 7
e 14 9
e 14 18
e 14 20
e 14 23
e 15 6
e 15 8
e 15 12
e 15 14
e 15 17
e 15 18
e 16 2
e 16 6
e 16 8
e 16 12
e 16 13
e 16 22
e 17 3
e 17 9
e 17 14
e 17 20
e 17 23
e 17 25
e 18 2
e 18 3
e 18 8
e 18 11
e 18 20
e 18 21
e 19 4
e 19 4
e 19 6
e 19 16
e 19 23
e 19 24
e 20 6
e 20 7
e 20 12
e 20 17
e 20 17
e 20 19
e 21 2
e 21 3
e 21 15
e 21 16
e 21 19
e 21 25
e 22 1
e 22 1
e 22 5
e 22 14
e 22 23
e 22 24
e 23 2
e 23 4
e 23 10
e 23 12
e 23 21
e 23 24
e 24 9
e 24 17
e 24 19
e 24 20
e 24 25
e 24 25
e 25 3
e 25 5
e 25 7
e 25 12
e 25 18
e 25 22
e 26 2
e 26 12
e 26 18
e 26 19
e 26 23
e 26 25
